NAME : R208.4877.tour
COMMENT : Cost = 0_4877
COMMENT : Found by LKH [Keld Helsgaun] Wed Sep 13 18:34:21 2017
TYPE : TOUR
DIMENSION : 52
TOUR_SECTION
1
28
31
21
33
11
12
20
50
37
48
49
47
9
46
18
6
19
8
32
2
51
4
34
10
36
35
30
25
13
27
29
52
7
38
17
45
39
15
43
44
16
42
23
24
40
26
5
22
41
3
14
-1
EOF
